(set-info :smt-lib-version 2.6)
(set-logic QF_S)
(set-info :source |
Generated by: Murphy Berzish, Mitja Kulczynski, Federico Mora, Florin Manea, Joel Day, Dirk Nowotka, Vijay Ganesh, Zhengyang Lu
Generated on: 2020-10-01
Description: Translated from a collection of real-world regex queries, AutomataArk, collected by Loris D’Antoni and Fang Wang: https://github.com/lorisdanto/automatark
Application: Evaluate solvers on real-world regex queries
Target solver: Z3str3RE, CVC4, OSTRICH, Z3seq, Z3str3, Z3-Trau
Publications: Berzish, M., Kulczynski, M., Mora, F., Manea, F., Day, J. D., Nowotka, D., & Ganesh, V. (2021, July). An SMT solver for regular expressions and linear arithmetic over string length. In CAV 2021.
|)
(set-info :license "https://creativecommons.org/licenses/by/4.0/")
(set-info :category "industrial")
(set-info :status unknown)

(declare-const X String)
(assert (not (str.in_re X (re.++ (str.to_re "/.php?hgfc=") (re.+ (re.union (re.range "a" "f") (re.range "0" "9"))) (str.to_re "/U\u{a}")))))
(assert (str.in_re X (re.++ (re.opt (re.union (str.to_re "+27") (str.to_re "27"))) (re.opt (str.to_re "(")) (re.opt (str.to_re "0")) (re.union (re.++ (str.to_re "7") (re.range "1" "9")) (re.++ (str.to_re "8") (re.range "2" "4"))) (re.opt (str.to_re ")")) (re.opt (re.union (str.to_re " ") (str.to_re "-") (str.to_re ".") (str.to_re "_"))) ((_ re.loop 3 3) (re.range "0" "9")) (re.opt (re.union (str.to_re " ") (str.to_re "-") (str.to_re ".") (str.to_re "_"))) ((_ re.loop 4 4) (re.range "0" "9")) (str.to_re "\u{a}"))))
(assert (not (str.in_re X (re.++ (str.to_re "/.dae") (re.union (str.to_re "?") (str.to_re "\u{5c}") (str.to_re "/")) (str.to_re "/smiU\u{a}")))))
(assert (str.in_re X (re.++ ((_ re.loop 3 3) (re.range "0" "9")) (re.opt (str.to_re "-")) ((_ re.loop 2 2) (re.range "0" "9")) (re.opt (str.to_re "-")) ((_ re.loop 4 4) (re.range "0" "9")) (re.union (str.to_re "A") (re.++ (str.to_re "B") (re.opt (re.range "1" "7"))) (str.to_re "M") (str.to_re "T") (re.++ (str.to_re "C") (re.range "1" "4")) (str.to_re "D")) (str.to_re "\u{a}"))))
(check-sat)

(exit)
